Argumentos: 
./solver.release -i 23 -t 86400 -a 7 -h 86400 -w Testes/R1-i23 -m R1_modeloCom2345.mod -o R1_modeloCom2345.mod 
Seed: 1622927738
hidden-TXT/Sc-n110w4.txt
hidden-TXT/H0-n110w4-1.txt
hidden-TXT/WD-n110w4-0.txt hidden-TXT/WD-n110w4-1.txt hidden-TXT/WD-n110w4-6.txt hidden-TXT/WD-n110w4-4.txt 
Reading model section from R1_modeloCom2345.mod...
367 lines were read
Reading data section from Testes/R1-i23/23.dat...
19773 lines were read
Generating obj...
Generating H1turnoDia...
Generating H2coberturaMinima...
Generating H3AsucessaoTurnos...
Generating H3BsucessaoTurnos...
Generating H4qualificacao...
Generating S1coberturaOtima...
Generating auxS5...
Generating S6a...
Generating S6b...
Generating auxS7...
Generating S7...
Model has been successfully generated
Writing problem data to `Testes/R1-i23/23.lp'...
380300 lines were written
CPX0000  Tried aggregator 2 times.
CPX0000  MIP Presolve eliminated 21884 rows and 91743 columns.
CPX0000  MIP Presolve modified 5930 coefficients.
CPX0000  Aggregator did 6 substitutions.
CPX0000  Reduced MIP has 10514 rows, 21078 columns, and 120233 nonzeros.
CPX0000  Reduced MIP has 20438 binaries, 640 generals, 0 SOSs, and 0 indicators.
CPX0000  Presolve time = 0.23 sec. (161.58 ticks)
CPX0000  Found incumbent of value 366990.000000 after 0.52 sec. (328.46 ticks)
[1m[30m[ZEN] [0m00:00:00 [1m[34m 366990.00[1m[32m  100.00%
[0mCPX0000  Probing time = 0.02 sec. (6.93 ticks)
CPX0000  Tried aggregator 1 time.
CPX0000  Reduced MIP has 10514 rows, 21078 columns, and 120233 nonzeros.
CPX0000  Reduced MIP has 20438 binaries, 640 generals, 0 SOSs, and 0 indicators.
CPX0000  Presolve time = 0.07 sec. (47.62 ticks)
CPX0000  Probing time = 0.02 sec. (6.34 ticks)
CPX0000  Clique table members: 14964.
CPX0000  MIP emphasis: balance optimality and feasibility.
CPX0000  MIP search method: dynamic search.
CPX0000  Parallel mode: none, using 1 thread.
CPX0000  Root relaxation solution time = 1.31 sec. (823.46 ticks)
CPX0000
CPX0000          Nodes                                         Cuts/
CPX0000     Node  Left     Objective  IInf  Best Integer    Best Bound    ItCnt     Gap
CPX0000
CPX0000  *     0+    0                       366990.0000        0.0000     7628  100.00%
CPX0000        0     0      740.0000  1217   366990.0000      740.0000     7628   99.80%
CPX0000  *     0+    0                         7020.0000      740.0000     7628   89.46%
[1m[30m[ZEN] [0m00:00:02 [1m[34m   7020.00[1m[32m   89.46%
[0mCPX0000        0     0      740.0000   578     7020.0000     Cuts: 788     9184   89.46%
CPX0000        0     0      740.0000   471     7020.0000     Cuts: 498    10662   89.46%
CPX0000        0     0      740.0000   567     7020.0000     Cuts: 303    11829   89.46%
CPX0000  *     0+    0                         1270.0000      740.0000    11829   41.73%
CPX0000  *     0+    0                         1260.0000      740.0000    11829   41.27%
CPX0000  *     0+    0                         1240.0000      740.0000    11829   40.32%
CPX0000  *     0+    0                         1150.0000      740.0000    11829   35.65%
CPX0000  *     0+    0                         1110.0000      740.0000    11829   33.33%
[1m[30m[ZEN] [0m00:00:04 [1m[34m   1110.00[1m[32m   33.33%
[0mCPX0000        0     0      740.0000   189     1110.0000      Cuts: 67    12621   33.33%
CPX0000        0     0      740.0000   123     1110.0000     Cuts: 151    13147   33.33%
CPX0000        0     0      740.0000   264     1110.0000     Cuts: 123    14077   33.33%
CPX0000  *     0+    0                          900.0000      740.0000    14077   17.78%
CPX0000  *     0+    0                          780.0000      740.0000    14077    5.13%
[1m[30m[ZEN] [0m00:00:07 [1m[34m    780.00[1m[32m    5.13%
[0mCPX0000        0     2      740.0000    29      780.0000      740.0000    14077    5.13%
CPX0000  Elapsed time = 8.04 sec. (5238.15 ticks, tree = 0.00 MB
CPX0000       15    17      740.0000    11      780.0000      740.0000    15678    5.13%
CPX0000       28    30      740.0000    36      780.0000      740.0000    17157    5.13%
CPX0000       39    41      740.0000    47      780.0000      740.0000    19270    5.13%
CPX0000       53    55      740.0000    19      780.0000      740.0000    20508    5.13%
CPX0000       65    67      740.0000    22      780.0000      740.0000    22085    5.13%
CPX0000       80    82      740.0000     8      780.0000      740.0000    23578    5.13%
CPX0000       96    98      740.0000    63      780.0000      740.0000    25363    5.13%
CPX0000      110   112      740.0000   110      780.0000      740.0000    27963    5.13%
CPX0000      128   130      740.0000   184      780.0000      740.0000    29858    5.13%
CPX0000      184   186      740.0000     9      780.0000      740.0000    36323    5.13%
CPX0000  Elapsed time = 12.72 sec. (8570.83 ticks, tree = 9.27 MB
CPX0000  *   240     0      integral     0      740.0000      740.0000    40564    0.00%
[1m[30m[ZEN] [0m00:00:13 [1m[34m    740.00[1m[32m    0.00%
[0mCPX0000
CPX0000  GUB cover cuts applied:  458
CPX0000  Clique cuts applied:  420
CPX0000  Mixed integer rounding cuts applied:  186
CPX0000  Zero-half cuts applied:  278
CPX0000  Gomory fractional cuts applied:  16
CPX0000
CPX0000  Root node processing (before b&c):
CPX0000    Real time             =    8.01 sec. (5209.59 ticks)
CPX0000  Sequential b&c:
CPX0000    Real time             =    5.75 sec. (4084.37 ticks)
CPX0000                            ------------
CPX0000  Total (root+branch&cut) =   13.76 sec. (9293.96 ticks)
H2 understaffing: 0
H3 shiftTypeSuccessions: 0
S1 optimalCoverage: 0
S2a consecutiveShift: 18540 = (1213,23 )
S2b consecutiveWorkingDays: 29760 = ( 822,170 )
S3 consecutiveDaysOff: 18390 = ( 533,80 )
S4 preferences: 0
S5 completeWeekend: 0
S6 totalAssignments: 740
S7 totalWorkingWeekeends: 0
 

Cost Solution: 67430

       |M|T|W|T|F|S|S| |M|T|W|T|F|S|S| |M|T|W|T|F|S|S| |M|T|W|T|F|S|S|
------------------------------------------------------------------------
HN_0   |-|-|-|E|D|N|N| |-|D|E|L|N|-|-| |L|-|D|N|N|-|-| |D|-|N|N|-|E|D|
HN_1   |-|-|-|-|-|-|E| |D|-|-|-|-|-|-| |-|-|-|E|-|-|-| |-|-|N|-|D|-|-|
HN_2   |-|-|-|-|-|-|-| |-|L|-|-|L|-|-| |-|E|-|L|-|N|-| |L|-|-|-|N|-|-|
HN_3   |N|-|D|D|D|E|D| |E|E|L|L|L|L|L| |L|L|N|-|D|-|-| |E|E|D|E|E|-|-|
HN_4   |L|-|D|-|L|-|-| |-|E|D|-|-|-|-| |D|-|-|-|E|N|N| |-|L|L|-|-|-|-|
HN_5   |-|L|-|L|L|-|-| |N|N|-|-|-|D|D| |-|D|-|-|N|-|-| |-|E|N|-|-|-|-|
HN_6   |-|D|-|E|D|-|-| |-|E|D|D|D|N|N| |-|-|-|D|E|E|D| |N|-|L|-|-|-|-|
HN_7   |E|E|-|E|-|-|-| |E|L|L|-|N|N|N| |-|E|L|-|-|D|E| |N|-|-|-|E|-|-|
HN_8   |N|N|-|N|-|-|-| |D|E|N|-|E|D|E| |-|-|L|-|D|L|L| |-|-|L|-|D|-|-|
HN_9   |L|L|L|-|N|-|-| |-|-|-|D|E|-|-| |-|-|-|L|-|-|-| |-|D|D|D|E|-|-|
HN_10  |L|-|L|N|-|-|-| |-|D|N|-|D|E|D| |L|-|L|N|-|L|L| |-|N|-|N|-|-|-|
HN_11  |-|-|D|-|E|-|-| |-|-|L|-|E|-|-| |-|-|-|D|D|-|-| |L|N|-|-|-|-|E|
HN_12  |-|-|N|-|-|-|-| |-|N|-|-|L|-|-| |N|N|N|-|-|D|D| |E|L|-|N|-|-|-|
HN_13  |-|-|E|-|-|N|N| |-|D|-|E|D|-|-| |N|-|L|-|L|-|-| |D|-|N|N|N|N|N|
HN_14  |N|-|D|N|-|-|-| |D|-|-|-|E|-|-| |-|-|D|E|-|L|L| |-|N|-|-|D|-|-|
HN_15  |-|L|N|-|-|D|D| |D|-|-|N|-|L|N| |-|D|E|E|N|-|-| |-|E|E|D|L|-|-|
HN_16  |D|E|-|E|E|E|D| |L|L|L|L|N|-|-| |N|N|N|-|E|-|-| |E|E|E|L|L|L|L|
HN_17  |-|-|L|L|L|-|-| |-|-|-|E|L|-|-| |D|-|-|D|-|E|E| |-|D|N|-|-|-|-|
HN_18  |N|N|-|E|L|L|L| |N|N|N|N|-|E|D| |E|D|D|E|E|-|-| |L|L|L|L|L|-|-|
HN_19  |N|N|-|D|E|-|-| |-|D|E|L|-|-|-| |D|D|-|-|-|D|E| |-|-|E|D|N|N|N|
NU_20  |N|N|-|-|-|-|-| |D|L|-|-|-|-|-| |D|L|-|L|N|-|-| |L|L|-|E|-|-|-|
NU_21  |D|D|E|E|E|D|E| |D|E|D|D|L|-|-| |D|E|E|D|D|-|-| |E|N|N|-|-|D|D|
NU_22  |D|E|E|L|N|-|-| |E|N|N|-|E|D|E| |E|E|D|E|E|E|L| |-|D|E|D|N|-|-|
NU_23  |-|D|-|D|-|E|D| |D|-|N|N|-|-|-| |E|D|-|D|D|-|-| |-|-|L|-|-|-|-|
NU_24  |N|-|-|-|L|-|-| |-|D|-|-|-|-|-| |-|L|N|-|D|-|-| |-|L|L|L|-|D|E|
NU_25  |-|-|-|-|-|-|-| |D|N|-|D|-|-|-| |-|E|L|-|N|-|-| |L|-|D|-|D|E|L|
NU_26  |-|-|-|D|D|-|-| |-|-|E|-|-|-|-| |-|-|E|-|L|N|-| |-|-|-|-|L|-|-|
NU_27  |-|D|-|-|-|-|-| |E|-|-|-|L|-|-| |-|-|-|N|-|L|L| |-|-|-|E|N|-|-|
NU_28  |E|N|N|-|-|-|-| |-|L|N|-|-|N|N| |-|L|N|-|E|-|-| |E|-|-|-|-|-|-|
NU_29  |-|L|L|-|E|N|N| |-|-|L|N|N|-|-| |D|E|L|-|E|-|-| |D|D|-|E|-|-|-|
NU_30  |-|-|-|L|-|-|-| |-|N|-|-|-|N|N| |N|-|-|D|L|-|-| |N|-|E|D|D|-|-|
NU_31  |E|-|-|-|L|-|-| |-|E|-|L|-|-|-| |-|L|L|N|-|-|-| |E|-|L|-|-|L|L|
NU_32  |N|-|E|D|L|L|L| |N|N|N|-|N|-|-| |E|E|E|D|E|D|D| |E|E|E|L|N|-|-|
NU_33  |D|E|-|D|D|L|L| |N|-|D|L|L|L|L| |L|L|L|L|L|-|-| |D|D|E|D|E|-|-|
NU_34  |-|D|D|E|-|-|-| |L|-|L|L|-|-|-| |L|-|L|L|L|-|-| |-|-|-|-|E|-|E|
NU_35  |E|-|N|N|N|-|-| |L|L|N|-|D|E|E| |D|N|-|N|-|-|-| |N|-|D|-|E|-|-|
NU_36  |D|L|-|-|-|L|L| |-|L|L|-|L|-|-| |-|E|E|-|D|-|-| |N|-|-|D|-|-|-|
NU_37  |L|-|-|N|N|-|-| |D|-|D|N|-|-|-| |-|E|-|D|N|-|-| |L|L|-|-|L|-|-|
NU_38  |L|L|L|L|N|-|-| |E|L|-|E|D|-|-| |E|D|E|D|E|N|N| |-|E|D|E|D|D|D|
NU_39  |-|D|N|-|-|L|N| |-|E|D|D|E|-|-| |D|E|N|N|-|-|-| |N|-|D|L|-|-|-|
CT_40  |-|-|-|-|E|-|N| |-|-|-|L|-|-|-| |-|-|-|-|E|-|-| |L|-|D|-|-|-|-|
CT_41  |-|-|-|-|E|-|-| |-|-|-|-|L|-|-| |N|-|-|-|-|N|-| |-|D|-|-|D|-|-|
CT_42  |D|D|E|-|D|L|L| |L|L|-|D|N|-|-| |D|D|E|E|D|E|L| |L|L|N|N|N|-|-|
CT_43  |-|-|-|-|-|-|-| |-|D|-|N|-|-|-| |-|-|-|-|-|-|-| |-|D|-|D|D|E|-|
CT_44  |D|-|L|L|-|-|-| |-|-|E|-|L|-|-| |L|-|-|-|E|L|L| |-|L|-|L|-|-|-|
CT_45  |D|E|D|D|E|E|D| |E|-|D|D|-|-|-| |-|D|D|-|L|-|-| |-|L|-|E|-|-|-|
CT_46  |-|L|-|E|L|-|-| |N|-|-|-|N|-|-| |-|-|N|N|-|-|-| |L|N|-|E|D|-|-|
CT_47  |E|E|D|D|E|-|-| |E|E|D|D|D|E|E| |L|N|N|N|N|-|-| |E|D|L|N|N|-|-|
CT_48  |L|L|N|-|-|D|E| |D|-|E|N|-|-|-| |-|-|-|-|-|-|-| |L|L|L|-|-|-|-|
CT_49  |E|L|L|L|L|N|N| |N|N|N|N|-|L|N| |-|D|E|D|E|-|-| |D|E|L|N|N|-|-|
CT_50  |E|L|-|E|E|N|N| |-|D|D|N|-|N|N| |-|N|-|-|-|-|-| |N|-|L|-|D|-|-|
CT_51  |D|E|-|-|L|-|-| |L|N|-|-|-|D|D| |-|-|-|-|L|-|-| |N|-|L|L|-|-|-|
CT_52  |N|N|N|-|E|-|-| |-|E|E|E|E|-|-| |-|D|-|L|-|-|-| |N|-|L|L|-|N|N|
CT_53  |-|-|E|E|E|L|L| |-|N|-|-|D|-|-| |-|N|-|-|-|-|-| |N|-|L|-|L|-|-|
CT_54  |N|N|N|-|D|N|N| |-|L|L|L|N|-|-| |E|L|L|L|N|N|N| |N|N|N|N|N|-|-|
CT_55  |-|-|-|-|D|-|-| |L|-|-|-|-|-|-| |-|-|-|N|-|-|-| |-|-|D|-|L|-|-|
CT_56  |-|-|-|-|-|-|D| |L|L|-|-|D|-|-| |-|-|-|-|L|-|-| |-|-|-|-|-|-|-|
CT_57  |L|-|-|L|-|-|-| |E|D|D|D|-|-|-| |E|-|-|-|-|-|-| |E|-|N|-|-|L|L|
CT_58  |-|-|D|-|-|-|E| |L|-|E|D|-|-|-| |-|-|-|-|-|-|-| |E|-|-|D|L|-|-|
CT_59  |D|E|D|-|-|-|-| |L|N|-|D|E|E|D| |D|-|D|-|N|-|-| |E|-|N|N|-|-|-|
CT_60  |-|-|D|-|-|-|-| |L|-|-|D|D|-|-| |-|-|D|E|-|D|D| |E|-|N|N|-|-|-|
CT_61  |-|-|-|-|-|-|-| |-|-|-|D|-|-|L| |N|-|L|-|L|-|-| |-|-|-|-|-|-|-|
CT_62  |D|D|E|D|D|D|D| |N|N|-|D|L|-|-| |L|L|L|-|N|-|-| |E|D|D|D|E|N|N|
CT_63  |D|E|E|N|-|-|-| |-|D|L|N|N|-|-| |L|-|-|-|-|D|N| |-|N|-|L|-|E|D|
CT_64  |-|D|-|D|-|E|E| |-|-|N|-|-|-|-| |N|N|N|-|E|-|-| |-|E|-|L|-|-|-|
CT_65  |L|N|N|N|-|E|E| |E|D|D|L|N|-|-| |D|D|N|N|N|-|-| |-|E|E|D|E|D|E|
CT_66  |N|N|-|-|N|-|-| |N|-|E|E|N|-|-| |L|L|-|E|L|-|-| |-|N|N|-|-|E|D|
CT_67  |-|N|-|L|N|-|-| |-|-|-|-|-|N|-| |-|-|E|-|-|-|-| |-|-|-|-|-|-|-|
CT_68  |E|-|L|N|-|-|-| |-|E|E|-|-|-|-| |N|-|-|D|D|-|-| |-|-|E|E|D|-|-|
CT_69  |E|L|L|-|N|-|-| |N|-|N|-|-|D|L| |N|-|-|L|L|-|-| |-|-|N|-|-|-|-|
CT_70  |E|E|E|N|-|-|-| |L|-|L|-|E|-|-| |-|L|N|N|-|N|N| |-|D|-|-|-|L|L|
CT_71  |-|D|-|-|-|-|-| |-|-|-|N|N|-|-| |-|L|-|-|-|-|-| |-|-|E|-|E|-|-|
CT_72  |-|D|-|-|-|-|-| |-|-|-|-|D|D|E| |-|-|D|-|-|-|-| |-|-|-|N|-|-|-|
CT_73  |-|-|-|D|D|-|-| |-|L|-|-|-|-|-| |-|D|-|-|-|-|-| |-|N|-|-|-|-|-|
CT_74  |-|-|L|-|-|-|-| |D|N|-|-|-|-|-| |-|-|-|-|-|N|-| |-|D|-|-|D|-|-|
CT_75  |N|-|D|E|-|-|-| |-|-|-|L|-|L|L| |-|E|D|E|D|E|E| |N|-|D|-|L|-|-|
CT_76  |N|N|N|N|N|-|-| |D|D|E|E|E|-|-| |E|N|-|D|D|D|E| |D|E|D|D|-|D|E|
CT_77  |L|-|D|L|L|-|-| |D|-|D|E|D|E|D| |E|E|D|E|D|-|-| |D|E|E|E|L|N|N|
CT_78  |L|L|L|L|L|-|-| |E|D|E|E|D|-|-| |N|N|N|N|N|-|-| |D|E|D|D|D|L|N|
CT_79  |-|-|-|-|L|-|-| |-|-|-|-|-|-|-| |N|-|-|L|-|E|-| |D|N|-|-|-|-|-|
TR_80  |-|-|N|-|E|-|-| |E|-|N|-|-|E|E| |D|N|-|L|N|-|-| |L|L|N|-|-|N|N|
TR_81  |-|D|E|-|-|-|-| |L|N|-|E|E|-|-| |D|D|L|N|-|-|-| |N|-|-|-|-|-|-|
TR_82  |N|-|-|E|-|-|-| |-|L|-|-|L|-|-| |L|N|-|-|-|-|-| |E|-|E|E|-|E|D|
TR_83  |E|N|-|-|E|E|L| |-|L|L|-|D|-|-| |L|-|E|L|-|-|-| |E|N|N|-|D|-|-|
TR_84  |E|D|D|E|-|L|N| |-|-|E|-|-|N|N| |-|D|E|-|L|-|-| |-|D|E|L|-|-|-|
TR_85  |-|-|-|-|-|-|-| |E|-|-|-|E|-|-| |-|-|L|-|-|-|-| |-|L|-|-|D|-|-|
TR_86  |-|E|-|D|-|-|-| |L|-|E|L|-|-|-| |L|-|-|E|-|L|N| |-|E|D|-|-|-|-|
TR_87  |E|-|D|E|D|-|-| |D|E|D|N|-|-|-| |N|-|L|L|-|-|-| |L|-|-|E|-|N|N|
TR_88  |E|L|-|E|E|-|-| |D|D|E|-|E|N|N| |-|-|D|-|N|-|-| |-|N|-|N|N|-|-|
TR_89  |L|L|N|N|N|-|-| |D|E|D|D|-|E|D| |N|N|-|D|D|E|E| |D|D|L|L|N|-|-|
TR_90  |-|N|-|N|-|-|-| |-|N|-|N|N|-|-| |-|N|-|N|-|N|N| |-|-|D|N|-|-|-|
TR_91  |L|L|L|-|D|D|D| |D|D|D|L|L|-|-| |E|L|L|N|N|N|N| |N|-|N|N|N|-|-|
TR_92  |N|-|-|-|-|-|-| |-|-|-|-|N|N|-| |-|E|-|-|-|-|-| |-|-|E|-|-|-|-|
TR_93  |-|-|L|-|N|-|-| |-|-|D|E|L|-|-| |D|E|D|-|-|-|-| |D|L|-|-|L|-|-|
TR_94  |-|E|E|N|-|-|-| |-|E|-|-|D|D|E| |L|-|L|-|L|-|-| |L|-|-|-|-|-|-|
TR_95  |-|-|-|-|-|-|-| |E|-|L|N|-|-|-| |-|-|-|-|-|-|-| |-|E|-|L|-|-|-|
TR_96  |D|E|E|L|L|-|-| |D|-|E|E|-|-|-| |-|E|-|-|-|-|-| |N|N|N|-|D|D|E|
TR_97  |L|L|L|L|L|L|L| |L|L|N|-|D|E|E| |E|D|D|E|L|-|-| |L|L|-|E|N|-|-|
TR_98  |L|-|-|-|D|-|-| |L|N|N|-|L|-|-| |L|N|-|-|E|E|D| |L|-|L|-|-|D|D|
TR_99  |D|-|-|D|D|E|E| |N|-|E|E|-|-|-| |L|L|-|E|D|-|-| |D|E|D|-|-|-|-|
TR_100 |N|N|-|D|N|-|-| |E|D|N|-|D|D|D| |E|E|E|D|E|-|-| |-|E|D|E|D|L|L|
TR_101 |D|D|D|L|N|-|-| |L|-|E|D|E|-|-| |E|L|-|D|E|D|E| |D|D|E|N|N|N|N|
TR_102 |-|N|-|-|-|-|-| |-|-|-|-|-|-|-| |E|-|-|-|-|-|L| |-|D|-|N|-|-|-|
TR_103 |-|-|E|L|-|-|-| |N|-|N|-|-|-|-| |N|N|-|-|L|-|-| |-|-|-|D|L|L|L|
TR_104 |D|E|E|D|E|-|-| |E|E|D|E|D|-|-| |D|L|N|N|N|N|N| |-|D|D|-|E|D|E|
TR_105 |N|-|D|-|D|L|L| |N|-|-|L|-|L|L| |-|D|N|-|D|-|-| |E|-|-|D|L|-|-|
TR_106 |E|D|E|E|E|N|N| |N|N|-|N|N|-|-| |D|D|D|D|D|L|L| |N|N|-|D|E|-|-|
TR_107 |D|-|N|-|-|D|E| |N|-|-|D|E|-|-| |N|-|E|E|-|-|-| |-|-|E|E|E|E|E|
TR_108 |-|N|-|-|L|-|-| |-|-|-|-|N|-|-| |-|-|-|-|-|L|-| |-|N|-|-|-|-|-|
TR_109 |-|E|N|N|-|D|D| |-|N|-|-|-|E|L| |-|E|N|N|-|-|-| |E|L|L|L|-|-|-|


Hard constraint violations
--------------------------

Minimal coverage constraints: 0
Required skill constraints: 0
Illegal shift type succession constraints: 0
Single assignment per day: 0


Cost per constraint type
------------------------

Total assignment constraints: 740
Consecutive constraints: 48300
Non working days constraints: 18390
Preferences: 0
Max working weekend: 0
Complete weekends: 0
Optimal coverage constraints: 0

------------------------

Total cost: 67430
